\* LP *\
Minimize
OBJ: 0.1699671429 a_0 + 0.0490954145978 a_1 + 0.897149758634 a_10
 + 0.779183834484 a_11 + 0.623687370776 a_12 + 0.438150084215 a_13
 + 0.231508652085 a_14 + 0.0137162639921 a_15 + 0.204736788203 a_16
 + 0.413328390778 a_17 + 0.602011421287 a_18 + 0.761697683048 a_19
 + 0.265793218981 a_2 + 0.884695651545 a_20 + 0.965080948067 a_21
 + 0.998981696147 a_22 + 0.984765016213 a_23 + 0.92311567564 a_24
 + 0.817003105917 a_25 + 0.671538375601 a_26 + 0.493728008152 a_27
 + 0.292136502386 a_28 + 0.0764738107543 a_29 + 0.469688700629 a_3
 + 0.142872354857 a_30 + 0.3553368626 a_31 + 0.550686045835 a_32
 + 0.719510622792 a_33 + 0.853678908517 a_34 + 0.946728489478 a_35
 + 0.994177495257 a_36 + 0.993740474448 a_37 + 0.945438476805 a_38
 + 0.851598039344 a_39 + 0.650960932692 a_4 + 0.716739125254 a_40
 + 0.547357413203 a_41 + 0.351611423377 a_42 + 0.138929550323 a_43
 + 0.0804440695991 a_44 + 0.295942982164 a_45 + 0.497187364145 a_46
 + 0.674483982822 a_47 + 0.819293084845 a_48 + 0.924639726061 a_49
 + 0.800878670535 a_5 + 0.985449729988 a_50 + 0.998794093027 a_51
 + 0.964030064232 a_52 + 0.882832104367 a_53 + 0.759111233027 a_54
 + 0.598826648607 a_55 + 0.409698694716 a_56 + 0.200836998428 a_57
 + 0.0176983083497 a_58 + 0.235381149981 a_59 + 0.912220905016 a_6
 + 0.441726511071 a_60 + 0.626795462714 a_61 + 0.781673885668 a_62
 + 0.898901832072 a_63 + 0.972832844845 a_64 + 0.999905927626 a_65
 + 0.978817065419 a_66 + 0.910582034403 a_67 + 0.798487475569 a_68
 + 0.647932588808 a_69 + 0.979624673057 a_7 + 0.46616907248 a_70
 + 0.261951834653 a_71 + 0.0451173000372 a_72 + 0.173890375934 a_73
 + 0.384522365264 a_74 + 0.57663326727 a_75 + 0.740969776776 a_76
 + 0.869616383221 a_77 + 0.956376632909 a_78 + 0.997071590343 a_79
 + 0.999843372675 a_8 + 0.989741122828 a_80 + 0.934738313154 a_81
 + 0.834712452838 a_82 + 0.694481435093 a_83 + 0.520799693887 a_84
 + 0.322032866662 a_85 + 0.107754851053 a_86 + 0.111713336016 a_87
 + 0.325800685353 a_88 + 0.524195363758 a_89 + 0.971903140356 a_9
 + 0.697341398692 a_90 + 0.836898955796 a_91 + 0.936146039329 a_92
 + 0.990302267011 a_93 + 0.996759124195 a_94 + 0.955205606824 a_95
 + 0.8676432014 a_96 + 0.738289480432 a_97 + 0.573374956834 a_98
 + 0.380842982068 a_99
Subject To
_C1: a_0 + 6.28318530718 k_0 - p >= 0
_C10: a_4 + 0.24374708386 f - 6.09367709649 k_4 + 0.969838831513 p
 >= -3.04683854825
_C100: a_49 + 0.951088289627 f - 1.94099650944 k_49 + 0.308919189002 p >= 0
_C101: a_50 - 0.952890513989 f + 1.90578102798 k_50 - 0.303314471053 p >= 0
_C102: a_50 + 0.952890513989 f - 1.90578102798 k_50 + 0.303314471053 p >= 0
_C103: a_51 - 0.954597169334 f + 1.87175915556 k_51 - 0.297899721884 p >= 0
_C104: a_51 + 0.954597169334 f - 1.87175915556 k_51 + 0.297899721884 p >= 0
_C105: a_52 - 0.956214741491 f + 1.83887450287 k_52 - 0.292665966857 p >= 0
_C106: a_52 + 0.956214741491 f - 1.83887450287 k_52 + 0.292665966857 p >= 0
_C107: a_53 - 0.957749188311 f + 1.80707394021 k_53 - 0.287604750117 p >= 0
_C108: a_53 + 0.957749188311 f - 1.80707394021 k_53 + 0.287604750117 p >= 0
_C109: a_54 - 0.959205989115 f + 1.77630738725 k_54 - 0.282708101132 p >= 0
_C11: a_5 - 0.299716803589 f + 5.99433607178 k_5 - 0.954028216378 p
 >= 2.99716803589
_C110: a_54 + 0.959205989115 f - 1.77630738725 k_54 + 0.282708101132 p >= 0
_C111: a_55 - 0.960590188961 f + 1.74652761629 k_55 - 0.27796850338 p >= 0
_C112: a_55 + 0.960590188961 f - 1.74652761629 k_55 + 0.27796850338 p >= 0
_C113: a_56 - 0.961906438339 f + 1.71769006846 k_56 - 0.273378865096 p >= 0
_C114: a_56 + 0.961906438339 f - 1.71769006846 k_56 + 0.273378865096 p >= 0
_C115: a_57 - 0.963159028804 f + 1.68975268211 k_57 - 0.268932491961 p >= 0
_C116: a_57 + 0.963159028804 f - 1.68975268211 k_57 + 0.268932491961 p >= 0
_C117: a_58 - 0.964351925002 f + 1.66267573276 k_58 - 0.264623061628 p
 >= 0.831337866381
_C118: a_58 + 0.964351925002 f - 1.66267573276 k_58 + 0.264623061628 p
 >= -0.831337866381
_C119: a_59 - 0.965488793485 f + 1.63642168387 k_59 - 0.260444599971 p
 >= 0.818210841937
_C12: a_5 + 0.299716803589 f - 5.99433607178 k_5 + 0.954028216378 p
 >= -2.99716803589
_C120: a_59 + 0.965488793485 f - 1.63642168387 k_59 + 0.260444599971 p
 >= -0.818210841937
_C121: a_60 - 0.966573028681 f + 1.6109550478 k_60 - 0.256391458957 p
 >= 0.805477523901
_C122: a_60 + 0.966573028681 f - 1.6109550478 k_60 + 0.256391458957 p
 >= -0.805477523901
_C123: a_61 - 0.967607776307 f + 1.58624225624 k_61 - 0.252458296022 p
 >= 0.79312112812
_C124: a_61 + 0.967607776307 f - 1.58624225624 k_61 + 0.252458296022 p
 >= -0.79312112812
_C125: a_62 - 0.96859595452 f + 1.56225153955 k_62 - 0.248640054872 p
 >= 0.781125769774
_C126: a_62 + 0.96859595452 f - 1.56225153955 k_62 + 0.248640054872 p
 >= -0.781125769774
_C127: a_63 - 0.969540273042 f + 1.53895281435 k_63 - 0.244931947589 p
 >= 0.769476407176
_C128: a_63 + 0.969540273042 f - 1.53895281435 k_63 + 0.244931947589 p
 >= -0.769476407176
_C129: a_64 - 0.970443250463 f + 1.51631757885 k_64 - 0.241329437971 p
 >= 0.758158789424
_C13: a_6 - 0.352756327426 f + 5.87927212376 k_6 - 0.935715220279 p
 >= 2.93963606188
_C130: a_64 + 0.970443250463 f - 1.51631757885 k_64 + 0.241329437971 p
 >= -0.758158789424
_C131: a_65 - 0.97130722993 f + 1.49431881528 k_65 - 0.237828226007 p
 >= 0.747159407639
_C132: a_65 + 0.97130722993 f - 1.49431881528 k_65 + 0.237828226007 p
 >= -0.747159407639
_C133: a_66 - 0.972134393377 f + 1.47293089906 k_66 - 0.234424233418 p
 >= 0.736465449528
_C134: a_66 + 0.972134393377 f - 1.47293089906 k_66 + 0.234424233418 p
 >= -0.736465449528
_C135: a_67 - 0.972926774446 f + 1.4521295141 k_67 - 0.231113590179 p
 >= 0.72606475705
_C136: a_67 + 0.972926774446 f - 1.4521295141 k_67 + 0.231113590179 p
 >= -0.72606475705
_C137: a_68 - 0.973686270242 f + 1.43189157389 k_68 - 0.227892621956 p
 >= 0.715945786943
_C138: a_68 + 0.973686270242 f - 1.43189157389 k_68 + 0.227892621956 p
 >= -0.715945786943
_C139: a_69 - 0.974414652025 f + 1.41219514786 k_69 - 0.224757838393 p
 >= 0.706097573931
_C14: a_6 + 0.352756327426 f - 5.87927212376 k_6 + 0.935715220279 p
 >= -2.93963606188
_C140: a_69 + 0.974414652025 f - 1.41219514786 k_69 + 0.224757838393 p
 >= -0.706097573931
_C141: a_70 - 0.975113574958 f + 1.3930193928 k_70 - 0.221705922187 p
 >= 0.696509696399
_C142: a_70 + 0.975113574958 f - 1.3930193928 k_70 + 0.221705922187 p
 >= -0.696509696399
_C143: a_71 - 0.975784586996 f + 1.37434448873 k_71 - 0.218733718892 p
 >= 0.687172244364
_C144: a_71 + 0.975784586996 f - 1.37434448873 k_71 + 0.218733718892 p
 >= -0.687172244364
_C145: a_72 - 0.976429137004 f + 1.35615157917 k_72 - 0.215838227407 p
 >= 0.678075789586
_C146: a_72 + 0.976429137004 f - 1.35615157917 k_72 + 0.215838227407 p
 >= -0.678075789586
_C147: a_73 - 0.977048582171 f + 1.3384227153 k_73 - 0.213016591087 p >= 0
_C148: a_73 + 0.977048582171 f - 1.3384227153 k_73 + 0.213016591087 p >= 0
_C149: a_74 - 0.977644194802 f + 1.32114080379 k_74 - 0.210266089443 p >= 0
_C15: a_7 - 0.402602846248 f + 5.75146923212 k_7 - 0.915374758333 p
 >= 2.87573461606
_C150: a_74 + 0.977644194802 f - 1.32114080379 k_74 + 0.210266089443 p >= 0
_C151: a_75 - 0.978217168533 f + 1.30428955804 k_75 - 0.207584130386 p >= 0
_C152: a_75 + 0.978217168533 f - 1.30428955804 k_75 + 0.207584130386 p >= 0
_C153: a_76 - 0.978768624024 f + 1.28785345266 k_76 - 0.204968242969 p >= 0
_C154: a_76 + 0.978768624024 f - 1.28785345266 k_76 + 0.204968242969 p >= 0
_C155: a_77 - 0.979299614194 f + 1.27181768077 k_77 - 0.202416070606 p >= 0
_C156: a_77 + 0.979299614194 f - 1.27181768077 k_77 + 0.202416070606 p >= 0
_C157: a_78 - 0.979811129016 f + 1.25616811412 k_78 - 0.199925364717 p >= 0
_C158: a_78 + 0.979811129016 f - 1.25616811412 k_78 + 0.199925364717 p >= 0
_C159: a_79 - 0.980304099933 f + 1.24089126574 k_79 - 0.197493978782 p >= 0
_C16: a_7 + 0.402602846248 f - 5.75146923212 k_7 + 0.915374758333 p
 >= -2.87573461606
_C160: a_79 + 0.980304099933 f - 1.24089126574 k_79 + 0.197493978782 p >= 0
_C161: a_80 - 0.980779403919 f + 1.2259742549 k_80 - 0.195119862771 p >= 0
_C162: a_80 + 0.980779403919 f - 1.2259742549 k_80 + 0.195119862771 p >= 0
_C163: a_81 - 0.981237867219 f + 1.21140477434 k_81 - 0.192801057922 p >= 0
_C164: a_81 + 0.981237867219 f - 1.21140477434 k_81 + 0.192801057922 p >= 0
_C165: a_82 - 0.981680268791 f + 1.1971710595 k_82 - 0.190535691846 p >= 0
_C166: a_82 + 0.981680268791 f - 1.1971710595 k_82 + 0.190535691846 p >= 0
_C167: a_83 - 0.982107343489 f + 1.18326185963 k_83 - 0.188321973931 p >= 0
_C168: a_83 + 0.982107343489 f - 1.18326185963 k_83 + 0.188321973931 p >= 0
_C169: a_84 - 0.982519784997 f + 1.16966641071 k_84 - 0.186158191033 p >= 0
_C17: a_8 - 0.449110207418 f + 5.61387759272 k_8 - 0.893476368794 p
 >= 2.80693879636
_C170: a_84 + 0.982519784997 f - 1.16966641071 k_84 + 0.186158191033 p >= 0
_C171: a_85 - 0.982918248542 f + 1.15637441005 k_85 - 0.184042703424 p >= 0
_C172: a_85 + 0.982918248542 f - 1.15637441005 k_85 + 0.184042703424 p >= 0
_C173: a_86 - 0.983303353396 f + 1.14337599232 k_86 - 0.181973940991 p >= 0
_C174: a_86 + 0.983303353396 f - 1.14337599232 k_86 + 0.181973940991 p >= 0
_C175: a_87 - 0.983675685205 f + 1.13066170713 k_87 - 0.179950399655 p
 >= 0.565330853566
_C176: a_87 + 0.983675685205 f - 1.13066170713 k_87 + 0.179950399655 p
 >= -0.565330853566
_C177: a_88 - 0.984035798132 f + 1.11822249788 k_88 - 0.177970638014 p
 >= 0.559111248939
_C178: a_88 + 0.984035798132 f - 1.11822249788 k_88 + 0.177970638014 p
 >= -0.559111248939
_C179: a_89 - 0.98438421685 f + 1.10604968185 k_89 - 0.176033274172 p
 >= 0.553024840927
_C18: a_8 + 0.449110207418 f - 5.61387759272 k_8 + 0.893476368794 p
 >= -2.80693879636
_C180: a_89 + 0.98438421685 f - 1.10604968185 k_89 + 0.176033274172 p
 >= -0.553024840927
_C181: a_90 - 0.984721438394 f + 1.09413493155 k_90 - 0.174136982766 p
 >= 0.547067465775
_C182: a_90 + 0.984721438394 f - 1.09413493155 k_90 + 0.174136982766 p
 >= -0.547067465775
_C183: a_91 - 0.985047933871 f + 1.082470257 k_91 - 0.172280492152 p
 >= 0.541235128501
_C184: a_91 + 0.985047933871 f - 1.082470257 k_91 + 0.172280492152 p
 >= -0.541235128501
_C185: a_92 - 0.985364150057 f + 1.07104798919 k_92 - 0.170462581769 p
 >= 0.535523994596
_C186: a_92 + 0.985364150057 f - 1.07104798919 k_92 + 0.170462581769 p
 >= -0.535523994596
_C187: a_93 - 0.985670510875 f + 1.05986076438 k_93 - 0.16868207964 p
 >= 0.529930382191
_C188: a_93 + 0.985670510875 f - 1.05986076438 k_93 + 0.16868207964 p
 >= -0.529930382191
_C189: a_94 - 0.985967418777 f + 1.04890150934 k_94 - 0.166937860028 p
 >= 0.524450754669
_C19: a_9 - 0.492234896171 f + 5.46927662413 k_9 - 0.870462409867 p
 >= 2.73463831206
_C190: a_94 + 0.985967418777 f - 1.04890150934 k_94 + 0.166937860028 p
 >= -0.524450754669
_C191: a_95 - 0.986255256023 f + 1.03816342739 k_95 - 0.165228841207 p
 >= 0.519081713696
_C192: a_95 + 0.986255256023 f - 1.03816342739 k_95 + 0.165228841207 p
 >= -0.519081713696
_C193: a_96 - 0.986534385879 f + 1.02763998529 k_96 - 0.163553983378 p
 >= 0.513819992645
_C194: a_96 + 0.986534385879 f - 1.02763998529 k_96 + 0.163553983378 p
 >= -0.513819992645
_C195: a_97 - 0.986805153726 f + 1.01732490075 k_97 - 0.161912286685 p
 >= 0.508662450374
_C196: a_97 + 0.986805153726 f - 1.01732490075 k_97 + 0.161912286685 p
 >= -0.508662450374
_C197: a_98 - 0.987067888105 f + 1.00721213072 k_98 - 0.160302789346 p
 >= 0.50360606536
_C198: a_98 + 0.987067888105 f - 1.00721213072 k_98 + 0.160302789346 p
 >= -0.50360606536
_C199: a_99 - 0.987322901681 f + 0.997295860284 k_99 - 0.158724565889 p
 >= 0.498647930142
_C2: a_0 - 6.28318530718 k_0 + p >= 0
_C20: a_9 + 0.492234896171 f - 5.46927662413 k_9 + 0.870462409867 p
 >= -2.73463831206
_C200: a_99 + 0.987322901681 f - 0.997295860284 k_99 + 0.158724565889 p
 >= -0.498647930142
_C21: a_10 - 0.532018044501 f + 5.32018044501 k_10 - 0.846733015965 p
 >= 2.66009022251
_C22: a_10 + 0.532018044501 f - 5.32018044501 k_10 + 0.846733015965 p
 >= -2.66009022251
_C23: a_11 - 0.568566221769 f + 5.16878383426 k_11 - 0.822637496996 p
 >= 2.58439191713
_C24: a_11 + 0.568566221769 f - 5.16878383426 k_11 + 0.822637496996 p
 >= -2.58439191713
_C25: a_12 - 0.602033067592 f + 5.01694222993 k_12 - 0.7984711551 p
 >= 2.50847111496
_C26: a_12 + 0.602033067592 f - 5.01694222993 k_12 + 0.7984711551 p
 >= -2.50847111496
_C27: a_13 - 0.632603062459 f + 4.86617740353 k_13 - 0.774476187734 p
 >= 2.43308870177
_C28: a_13 + 0.632603062459 f - 4.86617740353 k_13 + 0.774476187734 p
 >= -2.43308870177
_C29: a_14 - 0.660478060926 f + 4.71770043518 k_14 - 0.750845344286 p
 >= 2.35885021759
_C3: a_1 - 0.0627081939847 f + 6.27081939847 k_1 - 0.998031904504 p
 >= 3.13540969924
_C30: a_14 + 0.660478060926 f - 4.71770043518 k_14 + 0.750845344286 p
 >= -2.35885021759
_C31: a_15 - 0.685866711946 f + 4.57244474631 k_15 - 0.72772718339 p
 >= 2.28622237315
_C32: a_15 + 0.685866711946 f - 4.57244474631 k_15 + 0.72772718339 p
 >= -2.28622237315
_C33: a_16 - 0.708976569838 f + 4.43110356149 k_16 - 0.705232035163 p >= 0
_C34: a_16 + 0.708976569838 f - 4.43110356149 k_16 + 0.705232035163 p >= 0
_C35: a_17 - 0.730008529142 f + 4.29416781848 k_17 - 0.683438034777 p >= 0
_C36: a_17 + 0.730008529142 f - 4.29416781848 k_17 + 0.683438034777 p >= 0
_C37: a_18 - 0.749153155785 f + 4.16196197658 k_18 - 0.662396821534 p >= 0
_C38: a_18 + 0.749153155785 f - 4.16196197658 k_18 + 0.662396821534 p >= 0
_C39: a_19 - 0.766588495417 f + 4.03467629167 k_19 - 0.642138675595 p >= 0
_C4: a_1 + 0.0627081939847 f - 6.27081939847 k_1 + 0.998031904504 p
 >= -3.13540969924
_C40: a_19 + 0.766588495417 f - 4.03467629167 k_19 + 0.642138675595 p >= 0
_C41: a_20 - 0.782478985827 f + 3.91239492913 k_20 - 0.622676992299 p >= 0
_C42: a_20 + 0.782478985827 f - 3.91239492913 k_20 + 0.622676992299 p >= 0
_C43: a_21 - 0.796975161915 f + 3.79511981864 k_21 - 0.604012078763 p >= 0
_C44: a_21 + 0.796975161915 f - 3.79511981864 k_21 + 0.604012078763 p >= 0
_C45: a_22 - 0.810213905064 f + 3.68279047756 k_22 - 0.586134308876 p >= 0
_C46: a_22 + 0.810213905064 f - 3.68279047756 k_22 + 0.586134308876 p >= 0
_C47: a_23 - 0.822319046585 f + 3.57530020254 k_23 - 0.569026700272 p >= 0
_C48: a_23 + 0.822319046585 f - 3.57530020254 k_23 + 0.569026700272 p >= 0
_C49: a_24 - 0.833402183942 f + 3.47250909976 k_24 - 0.552666988158 p >= 0
_C5: a_2 - 0.124683103913 f + 6.23415519567 k_2 - 0.992196615394 p
 >= 3.11707759784
_C50: a_24 + 0.833402183942 f - 3.47250909976 k_24 + 0.552666988158 p >= 0
_C51: a_25 - 0.843563608069 f + 3.37425443228 k_25 - 0.537029272146 p >= 0
_C52: a_25 + 0.843563608069 f - 3.37425443228 k_25 + 0.537029272146 p >= 0
_C53: a_26 - 0.852893270888 f + 3.28035873418 k_26 - 0.52208530766 p >= 0
_C54: a_26 + 0.852893270888 f - 3.28035873418 k_26 + 0.52208530766 p >= 0
_C55: a_27 - 0.861471745389 f + 3.19063609403 k_27 - 0.507805505973 p >= 0
_C56: a_27 + 0.861471745389 f - 3.19063609403 k_27 + 0.507805505973 p >= 0
_C57: a_28 - 0.869371147732 f + 3.10489695619 k_28 - 0.494159698368 p >= 0
_C58: a_28 + 0.869371147732 f - 3.10489695619 k_28 + 0.494159698368 p >= 0
_C59: a_29 - 0.876656003134 f + 3.02295173494 k_29 - 0.481117711345 p >= 0
_C6: a_2 + 0.124683103913 f - 6.23415519567 k_2 + 0.992196615394 p
 >= -3.11707759784
_C60: a_29 + 0.876656003134 f - 3.02295173494 k_29 + 0.481117711345 p >= 0
_C61: a_30 - 0.883384045923 f + 2.94461348641 k_30 - 0.468649791857 p
 >= 1.47230674321
_C62: a_30 + 0.883384045923 f - 2.94461348641 k_30 + 0.468649791857 p
 >= -1.47230674321
_C63: a_31 - 0.889606950029 f + 2.8696998388 k_31 - 0.456726914535 p
 >= 1.4348499194
_C64: a_31 + 0.889606950029 f - 2.8696998388 k_31 + 0.456726914535 p
 >= -1.4348499194
_C65: a_32 - 0.895370990054 f + 2.79803434392 k_32 - 0.445320996776 p
 >= 1.39901717196
_C66: a_32 + 0.895370990054 f - 2.79803434392 k_32 + 0.445320996776 p
 >= -1.39901717196
_C67: a_33 - 0.900717635574 f + 2.72944738053 k_33 - 0.43440504252 p
 >= 1.36472369026
_C68: a_33 + 0.900717635574 f - 2.72944738053 k_33 + 0.43440504252 p
 >= -1.36472369026
_C69: a_34 - 0.905684082707 f + 2.66377671384 k_34 - 0.423953231301 p
 >= 1.33188835692
_C7: a_3 - 0.18523355412 f + 6.174451804 k_3 - 0.98269452549 p >= 3.087225902
_C70: a_34 + 0.905684082707 f - 2.66377671384 k_34 + 0.423953231301 p
 >= -1.33188835692
_C71: a_35 - 0.910303727832 f + 2.60086779381 k_35 - 0.413940965713 p
 >= 1.3004338969
_C72: a_35 + 0.910303727832 f - 2.60086779381 k_35 + 0.413940965713 p
 >= -1.3004338969
_C73: a_36 - 0.914606588557 f + 2.5405738571 k_36 - 0.404344887648 p
 >= 1.27028692855
_C74: a_36 + 0.914606588557 f - 2.5405738571 k_36 + 0.404344887648 p
 >= -1.27028692855
_C75: a_37 - 0.918619677098 f + 2.48275588405 k_37 - 0.395142871437 p
 >= 1.24137794202
_C76: a_37 + 0.918619677098 f - 2.48275588405 k_37 + 0.395142871437 p
 >= -1.24137794202
_C77: a_38 - 0.922367330979 f + 2.42728244995 k_38 - 0.386314000189 p
 >= 1.21364122497
_C78: a_38 + 0.922367330979 f - 2.42728244995 k_38 + 0.386314000189 p
 >= -1.21364122497
_C79: a_39 - 0.925871505694 f + 2.37402950178 k_39 - 0.377838530254 p
 >= 1.18701475089
_C8: a_3 + 0.18523355412 f - 6.174451804 k_3 + 0.98269452549 p >= -3.087225902
_C80: a_39 + 0.925871505694 f - 2.37402950178 k_39 + 0.377838530254 p
 >= -1.18701475089
_C81: a_40 - 0.929152033578 f + 2.32288008395 k_40 - 0.36969784757 p
 >= 1.16144004197
_C82: a_40 + 0.929152033578 f - 2.32288008395 k_40 + 0.36969784757 p
 >= -1.16144004197
_C83: a_41 - 0.932226852772 f + 2.27372403115 k_41 - 0.361874418785 p
 >= 1.13686201558
_C84: a_41 + 0.932226852772 f - 2.27372403115 k_41 + 0.361874418785 p
 >= -1.13686201558
_C85: a_42 - 0.935112209748 f + 2.22645764226 k_42 - 0.35435173935 p
 >= 1.11322882113
_C86: a_42 + 0.935112209748 f - 2.22645764226 k_42 + 0.35435173935 p
 >= -1.11322882113
_C87: a_43 - 0.937822838528 f + 2.18098334541 k_43 - 0.347114280224 p
 >= 1.09049167271
_C88: a_43 + 0.937822838528 f - 2.18098334541 k_43 + 0.347114280224 p
 >= -1.09049167271
_C89: a_44 - 0.940372119356 f + 2.13720936217 k_44 - 0.340147434412 p >= 0
_C9: a_4 - 0.24374708386 f + 6.09367709649 k_4 - 0.969838831513 p
 >= 3.04683854825
_C90: a_44 + 0.940372119356 f - 2.13720936217 k_44 + 0.340147434412 p >= 0
_C91: a_45 - 0.942772219278 f + 2.09504937617 k_45 - 0.333437464239 p >= 0
_C92: a_45 + 0.942772219278 f - 2.09504937617 k_45 + 0.333437464239 p >= 0
_C93: a_46 - 0.945034216786 f + 2.0544222104 k_46 - 0.326971449984 p >= 0
_C94: a_46 + 0.945034216786 f - 2.0544222104 k_46 + 0.326971449984 p >= 0
_C95: a_47 - 0.947168212448 f + 2.01525151585 k_47 - 0.32073724032 p >= 0
_C96: a_47 + 0.947168212448 f - 2.01525151585 k_47 + 0.32073724032 p >= 0
_C97: a_48 - 0.949183427178 f + 1.97746547329 k_48 - 0.314723404867 p >= 0
_C98: a_48 + 0.949183427178 f - 1.97746547329 k_48 + 0.314723404867 p >= 0
_C99: a_49 - 0.951088289627 f + 1.94099650944 k_49 - 0.308919189002 p >= 0
Bounds
0 <= a_1 <= 2
0 <= a_10 <= 11
0 <= a_11 <= 12
0 <= a_12 <= 13
0 <= a_13 <= 14
0 <= a_14 <= 15
0 <= a_15 <= 16
0 <= a_16 <= 17
0 <= a_17 <= 18
0 <= a_18 <= 19
0 <= a_19 <= 20
0 <= a_2 <= 3
0 <= a_20 <= 21
0 <= a_21 <= 22
0 <= a_22 <= 23
0 <= a_23 <= 24
0 <= a_24 <= 25
0 <= a_25 <= 26
0 <= a_26 <= 27
0 <= a_27 <= 28
0 <= a_28 <= 29
0 <= a_29 <= 30
0 <= a_3 <= 4
0 <= a_30 <= 31
0 <= a_31 <= 32
0 <= a_32 <= 33
0 <= a_33 <= 34
0 <= a_34 <= 35
0 <= a_35 <= 36
0 <= a_36 <= 37
0 <= a_37 <= 38
0 <= a_38 <= 39
0 <= a_39 <= 40
0 <= a_4 <= 5
0 <= a_40 <= 41
0 <= a_41 <= 42
0 <= a_42 <= 43
0 <= a_43 <= 44
0 <= a_44 <= 45
0 <= a_45 <= 46
0 <= a_46 <= 47
0 <= a_47 <= 48
0 <= a_48 <= 49
0 <= a_49 <= 50
0 <= a_5 <= 6
0 <= a_50 <= 51
0 <= a_51 <= 52
0 <= a_52 <= 53
0 <= a_53 <= 54
0 <= a_54 <= 55
0 <= a_55 <= 56
0 <= a_56 <= 57
0 <= a_57 <= 58
0 <= a_58 <= 59
0 <= a_59 <= 60
0 <= a_6 <= 7
0 <= a_60 <= 61
0 <= a_61 <= 62
0 <= a_62 <= 63
0 <= a_63 <= 64
0 <= a_64 <= 65
0 <= a_65 <= 66
0 <= a_66 <= 67
0 <= a_67 <= 68
0 <= a_68 <= 69
0 <= a_69 <= 70
0 <= a_7 <= 8
0 <= a_70 <= 71
0 <= a_71 <= 72
0 <= a_72 <= 73
0 <= a_73 <= 74
0 <= a_74 <= 75
0 <= a_75 <= 76
0 <= a_76 <= 77
0 <= a_77 <= 78
0 <= a_78 <= 79
0 <= a_79 <= 80
0 <= a_8 <= 9
0 <= a_80 <= 81
0 <= a_81 <= 82
0 <= a_82 <= 83
0 <= a_83 <= 84
0 <= a_84 <= 85
0 <= a_85 <= 86
0 <= a_86 <= 87
0 <= a_87 <= 88
0 <= a_88 <= 89
0 <= a_89 <= 90
0 <= a_9 <= 10
0 <= a_90 <= 91
0 <= a_91 <= 92
0 <= a_92 <= 93
0 <= a_93 <= 94
0 <= a_94 <= 95
0 <= a_95 <= 96
0 <= a_96 <= 97
0 <= a_97 <= 98
0 <= a_98 <= 99
0 <= a_99 <= 100
f <= 50
0 <= k_1 <= 2
0 <= k_10 <= 11
0 <= k_11 <= 12
0 <= k_12 <= 13
0 <= k_13 <= 14
0 <= k_14 <= 15
0 <= k_15 <= 16
0 <= k_16 <= 17
0 <= k_17 <= 18
0 <= k_18 <= 19
0 <= k_19 <= 20
0 <= k_2 <= 3
0 <= k_20 <= 21
0 <= k_21 <= 22
0 <= k_22 <= 23
0 <= k_23 <= 24
0 <= k_24 <= 25
0 <= k_25 <= 26
0 <= k_26 <= 27
0 <= k_27 <= 28
0 <= k_28 <= 29
0 <= k_29 <= 30
0 <= k_3 <= 4
0 <= k_30 <= 31
0 <= k_31 <= 32
0 <= k_32 <= 33
0 <= k_33 <= 34
0 <= k_34 <= 35
0 <= k_35 <= 36
0 <= k_36 <= 37
0 <= k_37 <= 38
0 <= k_38 <= 39
0 <= k_39 <= 40
0 <= k_4 <= 5
0 <= k_40 <= 41
0 <= k_41 <= 42
0 <= k_42 <= 43
0 <= k_43 <= 44
0 <= k_44 <= 45
0 <= k_45 <= 46
0 <= k_46 <= 47
0 <= k_47 <= 48
0 <= k_48 <= 49
0 <= k_49 <= 50
0 <= k_5 <= 6
0 <= k_50 <= 51
0 <= k_51 <= 52
0 <= k_52 <= 53
0 <= k_53 <= 54
0 <= k_54 <= 55
0 <= k_55 <= 56
0 <= k_56 <= 57
0 <= k_57 <= 58
0 <= k_58 <= 59
0 <= k_59 <= 60
0 <= k_6 <= 7
0 <= k_60 <= 61
0 <= k_61 <= 62
0 <= k_62 <= 63
0 <= k_63 <= 64
0 <= k_64 <= 65
0 <= k_65 <= 66
0 <= k_66 <= 67
0 <= k_67 <= 68
0 <= k_68 <= 69
0 <= k_69 <= 70
0 <= k_7 <= 8
0 <= k_70 <= 71
0 <= k_71 <= 72
0 <= k_72 <= 73
0 <= k_73 <= 74
0 <= k_74 <= 75
0 <= k_75 <= 76
0 <= k_76 <= 77
0 <= k_77 <= 78
0 <= k_78 <= 79
0 <= k_79 <= 80
0 <= k_8 <= 9
0 <= k_80 <= 81
0 <= k_81 <= 82
0 <= k_82 <= 83
0 <= k_83 <= 84
0 <= k_84 <= 85
0 <= k_85 <= 86
0 <= k_86 <= 87
0 <= k_87 <= 88
0 <= k_88 <= 89
0 <= k_89 <= 90
0 <= k_9 <= 10
0 <= k_90 <= 91
0 <= k_91 <= 92
0 <= k_92 <= 93
0 <= k_93 <= 94
0 <= k_94 <= 95
0 <= k_95 <= 96
0 <= k_96 <= 97
0 <= k_97 <= 98
0 <= k_98 <= 99
0 <= k_99 <= 100
p <= 6.28318530718
Generals
a_1
a_10
a_11
a_12
a_13
a_14
a_15
a_16
a_17
a_18
a_19
a_2
a_20
a_21
a_22
a_23
a_24
a_25
a_26
a_27
a_28
a_29
a_3
a_30
a_31
a_32
a_33
a_34
a_35
a_36
a_37
a_38
a_39
a_4
a_40
a_41
a_42
a_43
a_44
a_45
a_46
a_47
a_48
a_49
a_5
a_50
a_51
a_52
a_53
a_54
a_55
a_56
a_57
a_58
a_59
a_6
a_60
a_61
a_62
a_63
a_64
a_65
a_66
a_67
a_68
a_69
a_7
a_70
a_71
a_72
a_73
a_74
a_75
a_76
a_77
a_78
a_79
a_8
a_80
a_81
a_82
a_83
a_84
a_85
a_86
a_87
a_88
a_89
a_9
a_90
a_91
a_92
a_93
a_94
a_95
a_96
a_97
a_98
a_99
k_1
k_10
k_11
k_12
k_13
k_14
k_15
k_16
k_17
k_18
k_19
k_2
k_20
k_21
k_22
k_23
k_24
k_25
k_26
k_27
k_28
k_29
k_3
k_30
k_31
k_32
k_33
k_34
k_35
k_36
k_37
k_38
k_39
k_4
k_40
k_41
k_42
k_43
k_44
k_45
k_46
k_47
k_48
k_49
k_5
k_50
k_51
k_52
k_53
k_54
k_55
k_56
k_57
k_58
k_59
k_6
k_60
k_61
k_62
k_63
k_64
k_65
k_66
k_67
k_68
k_69
k_7
k_70
k_71
k_72
k_73
k_74
k_75
k_76
k_77
k_78
k_79
k_8
k_80
k_81
k_82
k_83
k_84
k_85
k_86
k_87
k_88
k_89
k_9
k_90
k_91
k_92
k_93
k_94
k_95
k_96
k_97
k_98
k_99
Binaries
a_0
k_0
End
